Problem:    
Rows:       28
Columns:    9 (9 integer, 0 binary)
Non-zeros:  196
Status:     INTEGER OPTIMAL
Objective:  obj = 10 (MINimum)

   No.   Row name        Activity     Lower bound   Upper bound
------ ------------    ------------- ------------- -------------
     1 c0                          1             1               
     2 c1                          1             1               
     3 c2                          2             1               
     4 c3                          1             1               
     5 c4                          1             1               
     6 c5                          1             1               
     7 c6                          1             1               
     8 c7                          2             1               
     9 c8                         10                          20 
    10 c9                         10                          20 
    11 c10                        10                          20 
    12 c11                        10                          20 
    13 c12                        10                          20 
    14 c13                        10                          20 
    15 c14                        10                          20 
    16 c15                        10                          20 
    17 c16                        10                          20 
    18 c17                        10                          20 
    19 c18                        10                          20 
    20 c19                        10                          20 
    21 c20                        10                          20 
    22 c21                        10                          20 
    23 c22                        10                          20 
    24 c23                        10                          20 
    25 c24                        10                          20 
    26 c25                        10                          20 
    27 c26                        10                          20 
    28 c27                        10                          20 

   No. Column name       Activity     Lower bound   Upper bound
------ ------------    ------------- ------------- -------------
     1 x1           *              0             0            20 
     2 x4           *              1             0            20 
     3 x2           *              0             0            20 
     4 x5           *              1             0            20 
     5 x8           *              2             0            20 
     6 x3           *              0             0            20 
     7 x6           *              1             0            20 
     8 x7           *              2             0            20 
     9 x9           *              3             0            20 

Integer feasibility conditions:

KKT.PE: max.abs.err = 0.00e+00 on row 0
        max.rel.err = 0.00e+00 on row 0
        High quality

KKT.PB: max.abs.err = 0.00e+00 on row 0
        max.rel.err = 0.00e+00 on row 0
        High quality

End of output
